p cnf 15 23
1 2 0
-1 -2 0
3 4 0
-3 -4 0
5 6 7 8 0
-5 -6 0
-5 -7 0
-5 -8 0
-6 -7 0
-6 -8 0
-7 -8 0
9 10 0
-9 -10 0
11 12 0
-11 -12 0
13 14 15 0
-13 -14 0
-13 -15 0
-14 -15 0
-1 -4 0
-1 -7 0
-2 -8 0
-3 -10 0
